151
100
3
13
59
52
54
3
56
53
44
48
22
26
7
90
87
26
91
20
74
52
41
42
9
60
26
49
52
4
4
18
36
12
3
52
30
43
87
49
45
9
17
32
26
90
23
42
82
60
37
41
23
5
100
22
24
40
58
26
59
1
56
5
3
31
22
41
14
21
19
56
21
28
6
10
93
40
74
27
7
55
63
55
22
10
83
50
18
7
42
74
96
48
14
79
23
58
23
41
27
74
48
3
77
26
9
6
86
14
91
39
51
11
18
64
50
7
37
12
28
60
58
38
89
9
18
28
73
37
69
74
10
3
82
80
25
10
13
26
36
59
90
56
87
24
11
6
27
16
97
40
77
